<?xml version = "1.0" standalone="yes"?>
<!-- This file has been generated by DOcplex version 2.23.222  -->
<CPLEXSolution version="1.0">
 <header
   problemName="CVRP"
   objectiveValue="19219.1"
  />
 <variables>
  <variable name="x_0_1" index="0" value="1.00000"/>
  <variable name="x_0_2" index="1" value="1.00000"/>
  <variable name="x_0_3" index="2" value="1.00000"/>
  <variable name="x_0_9" index="8" value="1.00000"/>
  <variable name="x_0_11" index="10" value="1.00000"/>
  <variable name="x_0_12" index="11" value="1.00000"/>
  <variable name="x_0_13" index="12" value="1.00000"/>
  <variable name="x_0_14" index="13" value="1.00000"/>
  <variable name="x_0_16" index="15" value="1.00000"/>
  <variable name="x_0_19" index="18" value="1.00000"/>
  <variable name="x_0_21" index="20" value="1.00000"/>
  <variable name="x_0_22" index="21" value="1.00000"/>
  <variable name="x_1_20" index="41" value="1.00000"/>
  <variable name="x_2_0" index="44" value="1.00000"/>
  <variable name="x_3_10" index="75" value="1.00000"/>
  <variable name="x_4_0" index="88" value="1.00000"/>
  <variable name="x_5_7" index="116" value="1.00000"/>
  <variable name="x_6_0" index="132" value="1.00000"/>
  <variable name="x_7_0" index="154" value="1.00000"/>
  <variable name="x_8_0" index="176" value="1.00000"/>
  <variable name="x_9_0" index="198" value="1.00000"/>
  <variable name="x_10_0" index="220" value="1.00000"/>
  <variable name="x_11_0" index="242" value="1.00000"/>
  <variable name="x_12_8" index="272" value="1.00000"/>
  <variable name="x_13_0" index="286" value="1.00000"/>
  <variable name="x_14_6" index="314" value="1.00000"/>
  <variable name="x_15_0" index="330" value="1.00000"/>
  <variable name="x_16_18" index="369" value="1.00000"/>
  <variable name="x_17_4" index="378" value="1.00000"/>
  <variable name="x_18_0" index="396" value="1.00000"/>
  <variable name="x_19_0" index="418" value="1.00000"/>
  <variable name="x_20_17" index="457" value="1.00000"/>
  <variable name="x_21_15" index="477" value="1.00000"/>
  <variable name="x_22_5" index="489" value="1.00000"/>
  <variable name="u_1" index="506" value="27.00000"/>
  <variable name="u_2" index="507" value="78.00000"/>
  <variable name="u_3" index="508" value="10.00000"/>
  <variable name="u_4" index="509" value="69.00000"/>
  <variable name="u_5" index="510" value="65.00000"/>
  <variable name="u_6" index="511" value="78.00000"/>
  <variable name="u_7" index="512" value="78.00000"/>
  <variable name="u_8" index="513" value="75.00000"/>
  <variable name="u_9" index="514" value="72.00000"/>
  <variable name="u_10" index="515" value="61.00000"/>
  <variable name="u_11" index="516" value="78.00000"/>
  <variable name="u_12" index="517" value="19.00000"/>
  <variable name="u_13" index="518" value="78.00000"/>
  <variable name="u_14" index="519" value="49.00000"/>
  <variable name="u_15" index="520" value="71.00000"/>
  <variable name="u_16" index="521" value="51.00000"/>
  <variable name="u_17" index="522" value="67.00000"/>
  <variable name="u_18" index="523" value="78.00000"/>
  <variable name="u_19" index="524" value="77.00000"/>
  <variable name="u_20" index="525" value="57.00000"/>
  <variable name="u_21" index="526" value="53.00000"/>
  <variable name="u_22" index="527" value="52.00000"/>
 </variables>
</CPLEXSolution>
